56306
31, 25, 27, 1, 33, 42, 11, 45, 52, 2, 14, 9, 47, 30, 4, 18, 12, 53, 34, 54, 26, 49, 55, 28, 3, 6, 43, 40, 51, 5, 35, 24, 50, 20, 7, 37, 13, 41, 32, 38, 8, 44, 19, 48, 17, 21, 23, 29, 22, 10, 16, 39, 36, 46, 15
